\ Model (null)_copy
\ LP format - for model browsing. Use MPS format to capture full model detail.
Minimize
 
Subject To
 c1-2_i1: x120 + x121 + x122 + x123 + x124 + x125 + x126 + x130 + x131
   + x132 + x133 + x134 + x135 + x136 = 1
 c13b_i1_p2: u12 - 960 x122 - 960 x132 <= 0
 c13b_i1_p3: u13 - 960 x123 - 960 x133 <= 0
 c15-1_i1_p2: - u12 <= -360
 c15-1_i1_p3: - u13 <= -360
Bounds
 u12 free
 u13 free
Binaries
 x120 x121 x122 x123 x124 x125 x126 x130 x131 x132 x133 x134 x135 x136
End
